143959
6,52,83,38,36,48,17,69,93,77,2,100,37,103,66,40,94,53,70,35,72,47,84,10,104,95,59,90,78,42,14,74,34,50,99,71,81,32,1,44,24,85,45,76,61,21,20,16,89,63,15,19,55,39,5,68,87,12,30,64,97,105,96,7,91,22,56,79,82,33,25,49,67,98,18,80,41,8,51,4,54,29,28,11,92,88,75,57,0,86,43,58,65,9,26,27,23,101,73,13,46,60,102,3,62,31
